NAME : pairopt.16546.tour
COMMENT : Length = 16546
COMMENT : Found by LKH-3 [Keld Helsgaun] Sat Mar  1 22:19:15 2025
TYPE : TOUR
DIMENSION : 43
TOUR_SECTION
1
25
23
24
22
19
20
17
14
27
29
40
39
38
37
34
35
36
41
42
8
7
6
5
4
3
43
33
31
32
30
28
26
15
11
21
18
16
12
13
9
10
2
-1
EOF
